11486 4255 4 5 11 12 13 17 19 26 30 34 36 37 41 45 48 51 55 56 63 69 72 73 75 76 78 80 81 82 86 93 102 112 113 114 115 116 117 122 125 127 128 132 133 135 137 139 145 147 160 164 167 172 178 183 187 189 194 195 197 201 202 203 205 206 208 210 214 215 217 218 219 224 226 227 231 232 236 238 239 241 250 251 253 255 258 259 261 263 265 270 274 275 277 278 281 283 284 291 294 300 303 305 307 309 312 315 316 317 320 322 323 325 330 331 333 335 337 343 344 350 351 354 355 356 357 358 364 367 370 372 375 380 383 385 387 393 395 398 402 403 404 405 406 411 412 413 416 419 420 424 425 426 427 433 434 435 436 438 439 440 441 444 446 448 451 455 457 464 466 471 474 478 489 490 493 494 498 